RT is False
Default write of storage_offers_DA.csv just to have a file (but constraint should be inactive)
Reading model...
...model read.
creating competitive generators file...
...competitive generators recorded.
Loading data...
.. day-ahead data with real-time VRE data read.
Compiling instance...
...instance created.
Creating Offer Mitigation (model will solve as dispatch if TRUE)...
Solving...

Welcome to IBM(R) ILOG(R) CPLEX(R) Interactive Optimizer 12.9.0.0
  with Simplex, Mixed Integer & Barrier Optimizers
5725-A06 5725-A29 5724-Y48 5724-Y49 5724-Y54 5724-Y55 5655-Y21
Copyright IBM Corp. 1988, 2019.  All Rights Reserved.

Type 'help' for a list of available commands.
Type 'help' followed by a command name for more
information on commands.

CPLEX> Logfile 'cplex.log' closed.
Logfile 'C:\Users\llavin\Desktop\test919\logs\tmpj9_5metr.cplex.log' open.
CPLEX> New value for parallel optimization mode: -1
CPLEX> New value for mixed integer optimality gap tolerance: 0.01
CPLEX> New value for integrality tolerance: 1e-09
CPLEX> New value for feasibility tolerance: 0.01
CPLEX> New value for deterministic time limit in ticks: 75000
CPLEX> Problem 'C:\Users\llavin\Desktop\test919\logs\tmpzdao1vqb.pyomo.lp' read.
Read time = 0.05 sec. (3.04 ticks)
CPLEX> Problem name         : C:\Users\llavin\Desktop\test919\logs\tmpzdao1vqb.pyomo.lp
Objective sense      : Minimize
Variables            :   26081  [Nneg: 1,  Box: 21616,  Free: 4464]
Objective nonzeros   :    2496
Linear constraints   :   27515  [Less: 14006,  Greater: 4416,  Equal: 9093]
  Nonzeros           :   89219
  RHS nonzeros       :   12265

Variables            : Min LB: -5000.000        Max UB: 1000000.       
Objective nonzeros   : Min   : 15.73158         Max   : 124.0997       
Linear constraints   :
  Nonzeros           : Min   : 0.8500000        Max   : 3000.000       
  RHS nonzeros       : Min   : 0.05833333       Max   : 5000.000       
CPLEX> CPXPARAM_Parallel                                -1
CPXPARAM_Simplex_Tolerances_Feasibility          0.01
CPXPARAM_DetTimeLimit                            75000
CPXPARAM_MIP_Tolerances_MIPGap                   0.01
CPXPARAM_MIP_Tolerances_Integrality              1.0000000000000001e-09
Parallel mode: opportunistic, using up to 32 threads for concurrent optimization.
Tried aggregator 1 time.
LP Presolve eliminated 21377 rows and 15487 columns.
Aggregator did 746 substitutions.
Reduced LP has 5392 rows, 9848 columns, and 31786 nonzeros.
Presolve time = 0.05 sec. (30.20 ticks)
Symmetry aggregator did 5563 additional substitutions.

Iteration log . . .
Iteration:     1   Dual objective     =             0.000000
Perturbation started.
Iteration:   101   Dual objective     =             0.000000
Iteration:   334   Dual objective     =             1.385816
Iteration:   609   Dual objective     =             1.964253
Iteration:   880   Dual objective     =             2.103902
Iteration:  1087   Dual objective     =             2.215231
Iteration:  1361   Dual objective     =             2.263340
Iteration:  1613   Dual objective     =             2.293132
Iteration:  1831   Dual objective     =             2.316423
Iteration:  2042   Dual objective     =          3268.775572
Iteration:  2242   Dual objective     =         10700.918722
Iteration:  2478   Dual objective     =         46957.725625
Iteration:  2799   Dual objective     =         51110.646869
Removing perturbation.

Dual crossover.
  Dual:  Fixing 4 variables.
Using devex.

Primal simplex solved model.


Primal simplex - Optimal:  Objective =  5.1612541804e+04
Solution time =    0.17 sec.  Iterations = 1624 (1195)
Deterministic time = 80.31 ticks  (466.92 ticks/sec)

CPLEX> Solution written to file 'C:\Users\llavin\Desktop\test919\logs\tmp0o2rkl1_.cplex.sol'.
CPLEX> Exporting results... 
...storage offer mitigation file created
Converting model to MPEC...
...converted
NOTE: initial MIP solve with only storage competitive to get feasible solution
Solving...

Welcome to IBM(R) ILOG(R) CPLEX(R) Interactive Optimizer 12.9.0.0
  with Simplex, Mixed Integer & Barrier Optimizers
5725-A06 5725-A29 5724-Y48 5724-Y49 5724-Y54 5724-Y55 5655-Y21
Copyright IBM Corp. 1988, 2019.  All Rights Reserved.

Type 'help' for a list of available commands.
Type 'help' followed by a command name for more
information on commands.

CPLEX> Logfile 'cplex.log' closed.
Logfile 'C:\Users\llavin\Desktop\test919\logs\tmpn6jkiu5u.cplex.log' open.
CPLEX> New value for parallel optimization mode: -1
CPLEX> New value for mixed integer optimality gap tolerance: 0.01
CPLEX> New value for integrality tolerance: 1e-09
CPLEX> New value for feasibility tolerance: 0.01
CPLEX> New value for deterministic time limit in ticks: 75000
CPLEX> Problem 'C:\Users\llavin\Desktop\test919\logs\tmp_cz0w34c.pyomo.lp' read.
Read time = 0.25 sec. (14.78 ticks)
CPLEX> Problem name         : C:\Users\llavin\Desktop\test919\logs\tmp_cz0w34c.pyomo.lp
Objective sense      : Maximize
Variables            :   53805  [Nneg: 1,  Box: 22000,  Free: 4464,
                                 Binary: 27340]
Objective nonzeros   :    9023
Linear constraints   :  123205  [Less: 41346,  Greater: 59096,  Equal: 22763]
  Nonzeros           :  291747
  RHS nonzeros       :   67485

Variables            : Min LB: -5000.000        Max UB: 1000000.       
Objective nonzeros   : Min   : 0.05833333       Max   : 2500.000       
Linear constraints   :
  Nonzeros           : Min   : 0.05833333       Max   : 1000000.       
  RHS nonzeros       : Min   : 0.05833333       Max   : 1000000.       
CPLEX> CPXPARAM_Parallel                                -1
CPXPARAM_Simplex_Tolerances_Feasibility          0.01
CPXPARAM_DetTimeLimit                            75000
CPXPARAM_MIP_Tolerances_MIPGap                   0.01
CPXPARAM_MIP_Tolerances_Integrality              1.0000000000000001e-09
Tried aggregator 3 times.
MIP Presolve eliminated 88647 rows and 18970 columns.
MIP Presolve added 3375 rows and 0 columns.
MIP Presolve modified 24846 coefficients.
Aggregator did 13001 substitutions.
Reduced MIP has 24932 rows, 21277 columns, and 71115 nonzeros.
Reduced MIP has 8415 binaries, 0 generals, 0 SOSs, and 0 indicators.
Presolve time = 0.28 sec. (173.72 ticks)
Probing fixed 393 vars, tightened 2873 bounds.
Probing time = 1.23 sec. (903.33 ticks)
Tried aggregator 2 times.
MIP Presolve eliminated 897 rows and 795 columns.
MIP Presolve modified 2207 coefficients.
Aggregator did 35 substitutions.
Reduced MIP has 24000 rows, 20447 columns, and 68416 nonzeros.
Reduced MIP has 8018 binaries, 0 generals, 0 SOSs, and 0 indicators.
Presolve time = 0.09 sec. (68.70 ticks)
Probing time = 0.05 sec. (15.52 ticks)
Clique table members: 6574.
MIP emphasis: balance optimality and feasibility.
MIP search method: dynamic search.
Parallel mode: opportunistic, using up to 32 threads.
Root relaxation solution time = 0.34 sec. (257.36 ticks)

        Nodes                                         Cuts/
   Node  Left     Objective  IInf  Best Integer    Best Bound    ItCnt     Gap

      0     0        0.0000  1605                      0.0000     6391         
*     0+    0                            0.0000        0.0000             0.00%
      0     0        cutoff              0.0000        0.0000     6391    0.00%
Elapsed time = 3.88 sec. (2823.09 ticks, tree = 0.01 MB, solutions = 1)

Root node processing (before b&c):
  Real time             =    3.89 sec. (2824.92 ticks)
Parallel b&c, 32 threads:
  Real time             =    0.00 sec. (0.00 ticks)
  Sync time (average)   =    0.00 sec.
  Wait time (average)   =    0.00 sec.
                          ------------
Total (root+branch&cut) =    3.89 sec. (2824.92 ticks)

Solution pool: 1 solution saved.

MIP - Integer optimal solution:  Objective =  9.7134034149e-10
Solution time =    3.91 sec.  Iterations = 6391  Nodes = 0
Deterministic time = 2825.07 ticks  (723.08 ticks/sec)

CPLEX> Incumbent solution written to file 'C:\Users\llavin\Desktop\test919\logs\tmporeajq1n.cplex.sol'.
CPLEX> NOTE: no warmstart specified for MIP iteration, default behavior is true
NOTE: resolving with all competitive generators using storage-only solution to warmstart
Solving...

Welcome to IBM(R) ILOG(R) CPLEX(R) Interactive Optimizer 12.9.0.0
  with Simplex, Mixed Integer & Barrier Optimizers
5725-A06 5725-A29 5724-Y48 5724-Y49 5724-Y54 5724-Y55 5655-Y21
Copyright IBM Corp. 1988, 2019.  All Rights Reserved.

Type 'help' for a list of available commands.
Type 'help' followed by a command name for more
information on commands.

CPLEX> Logfile 'cplex.log' closed.
Logfile 'C:\Users\llavin\Desktop\test919\logs\tmpl9c848gd.cplex.log' open.
CPLEX> New value for parallel optimization mode: -1
CPLEX> New value for mixed integer optimality gap tolerance: 0.01
CPLEX> New value for integrality tolerance: 1e-09
CPLEX> New value for feasibility tolerance: 0.01
CPLEX> New value for deterministic time limit in ticks: 75000
CPLEX> Problem 'C:\Users\llavin\Desktop\test919\logs\tmp3_yxd0k6.pyomo.lp' read.
Read time = 0.23 sec. (14.81 ticks)
CPLEX> MIP start file 'C:\Users\llavin\Desktop\test919\logs\tmphilmh6_q.cplex.mst' read.
CPLEX> Problem name         : C:\Users\llavin\Desktop\test919\logs\tmp3_yxd0k6.pyomo.lp
Objective sense      : Maximize
Variables            :   54525  [Nneg: 1,  Box: 22720,  Free: 4464,
                                 Binary: 27340]
Objective nonzeros   :    9719
Linear constraints   :  123205  [Less: 41346,  Greater: 59096,  Equal: 22763]
  Nonzeros           :  291747
  RHS nonzeros       :   67485

Variables            : Min LB: -5000.000        Max UB: 1000000.       
Objective nonzeros   : Min   : 0.05833333       Max   : 2500.000       
Linear constraints   :
  Nonzeros           : Min   : 0.05833333       Max   : 1000000.       
  RHS nonzeros       : Min   : 0.05833333       Max   : 1000000.       
CPLEX> CPXPARAM_Parallel                                -1
CPXPARAM_Simplex_Tolerances_Feasibility          0.01
CPXPARAM_DetTimeLimit                            75000
CPXPARAM_MIP_Tolerances_MIPGap                   0.01
CPXPARAM_MIP_Tolerances_Integrality              1.0000000000000001e-09
Warning:  No solution found from 1 MIP starts.
Retaining values of one MIP start for possible repair.
Tried aggregator 3 times.
MIP Presolve eliminated 88647 rows and 19690 columns.
MIP Presolve added 3375 rows and 0 columns.
MIP Presolve modified 24846 coefficients.
Aggregator did 13001 substitutions.
Reduced MIP has 24932 rows, 21277 columns, and 71115 nonzeros.
Reduced MIP has 8415 binaries, 0 generals, 0 SOSs, and 0 indicators.
Presolve time = 0.28 sec. (174.08 ticks)
Probing fixed 393 vars, tightened 2873 bounds.
Probing time = 1.34 sec. (903.33 ticks)
Tried aggregator 2 times.
MIP Presolve eliminated 897 rows and 795 columns.
MIP Presolve modified 2207 coefficients.
Aggregator did 35 substitutions.
Reduced MIP has 24000 rows, 20447 columns, and 68416 nonzeros.
Reduced MIP has 8018 binaries, 0 generals, 0 SOSs, and 0 indicators.
Presolve time = 0.09 sec. (68.71 ticks)
Probing time = 0.03 sec. (15.52 ticks)
Clique table members: 6574.
MIP emphasis: balance optimality and feasibility.
MIP search method: dynamic search.
Parallel mode: opportunistic, using up to 32 threads.
Root relaxation solution time = 0.38 sec. (290.48 ticks)

        Nodes                                         Cuts/
   Node  Left     Objective  IInf  Best Integer    Best Bound    ItCnt     Gap

      0     0   109874.2052  1699                 109874.2052     6822         
      0     0   106142.3996   622                   Cuts: 739     7247         
      0     0   105126.6684   551                   Cuts: 246     7396         
      0     0   105041.7426   531                   Cuts: 200     7512         
      0     0   104992.8953   487                   Cuts: 157     7576         
      0     0   104979.2951   465                   Cuts: 133     7628         
      0     0   104975.2725   448                    Cuts: 92     7655         
      0     0   104975.2725   420                   Cuts: 105     7688         
      0     0   103096.4958   392                    Cuts: 79     7753         
      0     0   102817.4614   392                    Cuts: 80     7776         
      0     0   102817.4614   391                    Cuts: 70     7780         
      0     0   102817.4614   394                    Cuts: 70     7782         
Repair heuristic found nothing.
      0     2   102817.4614   394                    Cuts: 32     7782         
Elapsed time = 12.56 sec. (6766.13 ticks, tree = 0.02 MB, solutions = 0)
    365    83    14333.1417   305                  55285.2839    14778         
    787   304    infeasible                        55285.2839    23079         
   1417   401    infeasible                        55285.2839    28739         
   2109   702    infeasible                        55285.2839    39489         
   2793  1083    -3043.9974   198                  55285.2839    47012         
   3767  1695     4948.7488   233                  55285.2839    56932         
   5095  2217      521.9623   229                  55285.2839    62947         
   6094  3745     5922.0104   278                  55285.2839    65879         
   6828  4575     7259.9607   240                  55285.2839    67659         
*  8198+ 2777                          521.9623    55285.2839              --- 
Elapsed time = 26.00 sec. (9256.13 ticks, tree = 17.29 MB, solutions = 4)
* 11512  3287      integral     0     1396.9677    52930.9837    80506     --- 
  11512  3287     1396.9677     0     1396.9677    52930.9837    80506     --- 
* 11513  3104      integral     0     1396.9677     1396.9677    92851    0.00%

GUB cover cuts applied:  3
Clique cuts applied:  21
Cover cuts applied:  23
Implied bound cuts applied:  34
Flow cuts applied:  1285
Mixed integer rounding cuts applied:  143
Gomory fractional cuts applied:  97

Root node processing (before b&c):
  Real time             =   10.34 sec. (6715.19 ticks)
Parallel b&c, 32 threads:
  Real time             =   22.88 sec. (5958.49 ticks)
  Sync time (average)   =    0.94 sec.
  Wait time (average)   =    0.00 sec.
                          ------------
Total (root+branch&cut) =   33.22 sec. (12673.68 ticks)

Solution pool: 8 solutions saved.

MIP - Integer optimal solution:  Objective =  1.3969676579e+03
Solution time =   33.28 sec.  Iterations = 92851  Nodes = 11513
Deterministic time = 12673.83 ticks  (380.81 ticks/sec)

CPLEX> Incumbent solution written to file 'C:\Users\llavin\Desktop\test919\logs\tmpxcxs9jje.cplex.sol'.
CPLEX> Exporting results... 
